c ind 10 114 116 13 15 16 25 28 39 41 0
c ind 43 45 5 53 6 75 9 0
p cnf 116 421
-1 -2 11 0
-1 2 115 0
-100 -101 112 0
-100 101 73 0
-101 -22 102 0
-101 22 59 0
-102 -30 16 0
-102 30 103 0
-103 -32 104 0
-103 32 59 0
-104 -35 16 0
-104 35 105 0
-105 -47 106 0
-105 47 107 0
-106 -52 13 0
-106 52 16 0
-107 -55 51 0
-107 55 108 0
-108 -59 106 0
-108 59 109 0
-109 -64 51 0
-109 64 110 0
-11 -12 14 0
-11 12 17 0
-110 -68 51 0
-110 68 111 0
-111 -71 51 0
-111 71 59 0
-112 -113 73 0
-112 113 76 0
-113 -114 13 0
-113 -13 114 0
-115 -116 15 0
-115 -15 116 0
-12 -13 5 0
-12 -5 13 0
-14 -15 16 0
-14 -16 15 0
-16 0
-17 -18 20 0
-17 18 115 0
-18 19 0
-18 7 0
-19 -13 9 0
-19 -9 13 0
-2 3 7 0
-20 -21 73 0
-20 21 77 0
-21 -22 29 0
-21 22 35 0
-22 23 26 0
-23 -24 0
-24 -25 6 0
-24 -6 25 0
-26 -27 0
-27 -10 28 0
-27 -28 10 0
-29 -30 13 0
-29 30 31 0
-3 -4 0
-30 -13 6 0
-30 -6 13 0
-31 -32 34 0
-31 32 35 0
-32 26 0
-32 33 0
-33 -10 13 0
-33 -13 10 0
-34 -35 16 0
-34 35 46 0
-35 36 0
-35 44 0
-36 37 0
-36 42 0
-37 38 0
-37 40 0
-38 -16 39 0
-38 -39 16 0
-4 -5 6 0
-4 -6 5 0
-40 -16 41 0
-40 -41 16 0
-42 -16 43 0
-42 -43 16 0
-44 -16 45 0
-44 -45 16 0
-46 -47 51 0
-46 47 54 0
-47 44 0
-47 48 0
-48 42 0
-48 49 0
-49 40 0
-49 50 0
-50 -13 39 0
-50 -39 13 0
-51 -52 16 0
-51 52 16 0
-52 -13 53 0
-52 -53 13 0
-54 -55 51 0
-54 55 58 0
-55 44 0
-55 56 0
-56 49 0
-56 57 0
-57 -13 43 0
-57 -43 13 0
-58 -59 51 0
-58 59 63 0
-59 44 0
-59 60 0
-60 42 0
-60 61 0
-61 38 0
-61 62 0
-62 -13 41 0
-62 -41 13 0
-63 -64 51 0
-63 64 67 0
-64 44 0
-64 65 0
-65 42 0
-65 66 0
-66 50 0
-66 62 0
-67 -68 51 0
-67 68 70 0
-68 44 0
-68 69 0
-69 37 0
-69 57 0
-7 -8 0
-70 -71 51 0
-70 71 35 0
-71 44 0
-71 72 0
-72 57 0
-72 61 0
-73 -74 14 0
-73 74 76 0
-74 -13 75 0
-74 -75 13 0
-76 -13 15 0
-76 -15 13 0
-77 -78 73 0
-77 78 89 0
-78 -22 79 0
-78 22 47 0
-79 -30 16 0
-79 30 80 0
-8 -10 9 0
-8 -9 10 0
-80 -32 81 0
-80 32 47 0
-81 -35 13 0
-81 35 82 0
-82 -47 51 0
-82 47 83 0
-83 -55 84 0
-83 55 85 0
-84 -52 16 0
-84 52 13 0
-85 -59 51 0
-85 59 86 0
-86 -64 84 0
-86 64 87 0
-87 -68 51 0
-87 68 88 0
-88 -71 84 0
-88 71 47 0
-89 -90 73 0
-89 90 100 0
-90 -22 91 0
-90 22 55 0
-91 -30 16 0
-91 30 92 0
-92 -32 93 0
-92 32 55 0
-93 -35 16 0
-93 35 94 0
-94 -47 84 0
-94 47 95 0
-95 -55 51 0
-95 55 96 0
-96 -59 51 0
-96 59 97 0
-97 -64 51 0
-97 64 98 0
-98 -68 51 0
-98 68 99 0
-99 -71 51 0
-99 71 55 0
1 -11 -115 0
1 -2 -11 0
1 0
1 2 -115 0
100 -101 -112 0
100 -112 -73 0
100 101 -73 0
101 -102 -59 0
101 -22 -102 0
101 22 -59 0
102 -16 -103 0
102 -30 -16 0
102 30 -103 0
103 -104 -59 0
103 -32 -104 0
103 32 -59 0
104 -16 -105 0
104 -35 -16 0
104 35 -105 0
105 -106 -107 0
105 -47 -106 0
105 47 -107 0
106 -13 -16 0
106 -52 -13 0
106 52 -16 0
107 -51 -108 0
107 -55 -51 0
107 55 -108 0
108 -106 -109 0
108 -59 -106 0
108 59 -109 0
109 -51 -110 0
109 -64 -51 0
109 64 -110 0
11 -12 -14 0
11 -14 -17 0
11 12 -17 0
110 -51 -111 0
110 -68 -51 0
110 68 -111 0
111 -51 -59 0
111 -71 -51 0
111 71 -59 0
112 -113 -73 0
112 -73 -76 0
112 113 -76 0
113 -114 -13 0
113 114 13 0
115 -15 -116 0
115 15 116 0
12 -5 -13 0
12 5 13 0
13 0
14 -15 -16 0
14 15 16 0
17 -18 -20 0
17 -20 -115 0
17 18 -115 0
18 -7 -19 0
19 -9 -13 0
19 9 13 0
2 -3 0
2 -7 0
20 -21 -73 0
20 -73 -77 0
20 21 -77 0
21 -22 -29 0
21 -29 -35 0
21 22 -35 0
22 -23 0
22 -26 0
23 24 0
24 -6 -25 0
24 6 25 0
26 27 0
27 -10 -28 0
27 10 28 0
29 -13 -31 0
29 -30 -13 0
29 30 -31 0
3 4 0
30 -6 -13 0
30 6 13 0
31 -32 -34 0
31 -34 -35 0
31 32 -35 0
32 -26 -33 0
33 -10 -13 0
33 10 13 0
34 -16 -46 0
34 -35 -16 0
34 35 -46 0
35 -36 -44 0
36 -37 -42 0
37 -38 -40 0
38 -39 -16 0
38 39 16 0
4 -5 -6 0
4 5 6 0
40 -41 -16 0
40 41 16 0
42 -43 -16 0
42 43 16 0
44 -45 -16 0
44 45 16 0
46 -47 -51 0
46 -51 -54 0
46 47 -54 0
47 -48 -44 0
48 -49 -42 0
49 -50 -40 0
50 -39 -13 0
50 39 13 0
51 -16 -16 0
51 -52 -16 0
51 52 -16 0
52 -53 -13 0
52 53 13 0
54 -51 -58 0
54 -55 -51 0
54 55 -58 0
55 -56 -44 0
56 -49 -57 0
57 -43 -13 0
57 43 13 0
58 -51 -63 0
58 -59 -51 0
58 59 -63 0
59 -60 -44 0
60 -61 -42 0
61 -38 -62 0
62 -41 -13 0
62 41 13 0
63 -51 -67 0
63 -64 -51 0
63 64 -67 0
64 -65 -44 0
65 -66 -42 0
66 -50 -62 0
67 -51 -70 0
67 -68 -51 0
67 68 -70 0
68 -69 -44 0
69 -37 -57 0
7 8 0
70 -51 -35 0
70 -71 -51 0
70 71 -35 0
71 -72 -44 0
72 -61 -57 0
73 -14 -76 0
73 -74 -14 0
73 74 -76 0
74 -75 -13 0
74 75 13 0
76 -15 -13 0
76 15 13 0
77 -73 -89 0
77 -78 -73 0
77 78 -89 0
78 -22 -79 0
78 -79 -47 0
78 22 -47 0
79 -16 -80 0
79 -30 -16 0
79 30 -80 0
8 -9 -10 0
8 9 10 0
80 -32 -81 0
80 -81 -47 0
80 32 -47 0
81 -13 -82 0
81 -35 -13 0
81 35 -82 0
82 -47 -51 0
82 -51 -83 0
82 47 -83 0
83 -55 -84 0
83 -84 -85 0
83 55 -85 0
84 -16 -13 0
84 -52 -16 0
84 52 -13 0
85 -51 -86 0
85 -59 -51 0
85 59 -86 0
86 -64 -84 0
86 -84 -87 0
86 64 -87 0
87 -51 -88 0
87 -68 -51 0
87 68 -88 0
88 -71 -84 0
88 -84 -47 0
88 71 -47 0
89 -73 -100 0
89 -90 -73 0
89 90 -100 0
90 -22 -91 0
90 -91 -55 0
90 22 -55 0
91 -16 -92 0
91 -30 -16 0
91 30 -92 0
92 -32 -93 0
92 -93 -55 0
92 32 -55 0
93 -16 -94 0
93 -35 -16 0
93 35 -94 0
94 -47 -84 0
94 -84 -95 0
94 47 -95 0
95 -51 -96 0
95 -55 -51 0
95 55 -96 0
96 -51 -97 0
96 -59 -51 0
96 59 -97 0
97 -51 -98 0
97 -64 -51 0
97 64 -98 0
98 -51 -99 0
98 -68 -51 0
98 68 -99 0
99 -51 -55 0
99 -71 -51 0
99 71 -55 0
